p cnf 44 132
a 2 6 0
e 1 3 4 5 7 8 9 10 11 12 13 14 15 16 17 18 19 20 21 22 23 24 25 26 27 28 29 30 31 32 33 34 35 36 37 38 39 40 41 42 43 44 0
2 -1 0
2 1 0
-3 -2 0
-3 1 0
2 -1 3 0
5 -4 0
5 1 0
4 -1 -5 0
3 -5 -6 0
-3 5 -6 0
3 5 6 0
-3 -5 6 0
10 -8 0
10 9 0
8 -9 -10 0
-11 -5 0
-11 10 0
5 -10 11 0
12 -11 0
12 5 0
11 -5 -12 0
-7 12 -13 0
7 -12 -13 0
-7 -12 13 0
7 12 13 0
3 -7 -14 0
-3 7 -14 0
3 7 14 0
-3 -7 14 0
-13 -14 -15 0
13 14 -15 0
-13 14 15 0
13 -14 15 0
-17 7 0
-17 7 0
-7 17 0
-16 17 -18 0
16 -17 -18 0
-16 -17 18 0
16 17 18 0
19 2 0
19 -18 0
-2 18 -19 0
20 7 0
20 19 0
-7 -19 -20 0
21 15 0
21 -20 0
-15 20 -21 0
23 -16 0
23 1 0
16 -1 -23 0
24 -22 0
24 23 0
22 -23 -24 0
25 4 0
25 -24 0
-4 24 -25 0
26 -25 0
26 -12 0
25 12 -26 0
27 -4 0
27 2 0
4 -2 -27 0
28 -26 0
28 27 0
26 -27 -28 0
-17 22 -29 0
17 -22 -29 0
-17 -22 29 0
17 22 29 0
30 -4 0
30 -29 0
4 29 -30 0
31 -17 0
31 22 0
17 -22 -31 0
-30 -31 -32 0
30 31 -32 0
-30 31 32 0
30 -31 32 0
28 32 -33 0
-28 -32 -33 0
28 -32 33 0
-28 32 33 0
34 21 0
34 33 0
-21 -33 -34 0
-35 29 0
-35 17 0
-29 -17 35 0
-36 -3 0
-36 -3 0
3 36 0
-35 36 -37 0
35 -36 -37 0
-35 -36 37 0
35 36 37 0
39 -16 0
39 38 0
16 -38 -39 0
-40 1 0
-40 16 0
-1 -16 40 0
39 40 -41 0
-39 -40 -41 0
39 -40 41 0
-39 40 41 0
-42 37 0
-42 41 0
-37 -41 42 0
-34 -42 -43 0
34 42 -43 0
-34 42 43 0
34 -42 43 0
6 -43 -44 0
-6 43 -44 0
6 43 44 0
-6 -43 44 0
-7 8 2 -39 -43 -13 -11 0
4 16 -27 29 37 -2 -1 41 0
-24 39 35 9 31 25 2 -1 0
-26 -29 -31 9 -5 -37 2 -41 0
26 -22 -11 0
-3 -26 39 -11 -15 43 -10 -19 0
10 12 25 -27 -37 0
38 -32 -44 12 -27 0
-42 10 13 0
-26 -28 33 -20 0
-31 -24 -3 -43 -41 35 0
5 -2 12 16 0
44 0
